p wcnf 140 1600
3 -131 133 0
5 -129 136 0
7 -128 138 0
2 -127 128 0
8 -126 140 0
7 -125 -128 0
8 -125 132 0
3 -122 130 0
3 -122 140 0
10 -121 123 0
9 -121 134 0
6 -120 -137 0
6 -120 -121 0
7 -119 131 0
8 -118 -137 0
7 -118 127 0
4 -117 -124 0
2 -117 -118 0
6 -117 126 0
5 -116 131 0
5 -115 -133 0
7 -115 -118 0
3 -114 -126 0
1 -114 132 0
5 -113 -137 0
6 -113 -117 0
3 -112 -113 0
4 -112 140 0
4 -111 -140 0
8 -109 -128 0
4 -109 -126 0
7 -109 -111 0
3 -109 -110 0
1 -109 112 0
7 -109 131 0
1 -108 -129 0
7 -108 -125 0
6 -108 -123 0
3 -108 128 0
10 -107 -127 0
5 -107 -115 0
2 -107 109 0
6 -107 118 0
2 -107 125 0
8 -106 113 0
4 -106 131 0
8 -105 127 0
3 -105 137 0
5 -104 -125 0
4 -104 125 0
6 -103 -121 0
9 -103 -120 0
10 -103 -106 0
8 -103 104 0
9 -103 105 0
5 -102 -136 0
5 -102 -124 0
3 -102 -117 0
8 -102 131 0
8 -102 140 0
9 -101 -114 0
2 -101 -110 0
5 -101 106 0
2 -101 109 0
2 -101 113 0
2 -101 137 0
3 -100 110 0
9 -99 -135 0
6 -99 -121 0
5 -99 101 0
9 -99 118 0
2 -99 127 0
6 -98 -126 0
4 -98 -114 0
3 -98 -110 0
4 -98 -106 0
7 -98 -100 0
9 -98 101 0
6 -97 -99 0
3 -97 107 0
3 -97 130 0
2 -97 132 0
2 -96 -116 0
3 -96 116 0
9 -95 -128 0
10 -95 -117 0
7 -95 -116 0
4 -95 107 0
2 -95 125 0
5 -95 132 0
2 -94 -103 0
2 -94 114 0
7 -93 -108 0
5 -93 102 0
3 -93 109 0
8 -93 113 0
6 -92 -125 0
5 -92 -120 0
7 -92 -94 0
2 -92 118 0
9 -91 -140 0
5 -91 -133 0
3 -91 -99 0
5 -90 -125 0
9 -90 -113 0
5 -90 -107 0
8 -89 -131 0
6 -89 -114 0
4 -89 -90 0
3 -89 92 0
8 -88 -117 0
6 -88 -115 0
4 -88 -114 0
8 -88 -113 0
8 -88 90 0
4 -88 96 0
8 -88 134 0
6 -88 137 0
6 -88 138 0
10 -87 -117 0
10 -87 -106 0
7 -87 -96 0
1 -87 -93 0
6 -87 110 0
2 -87 121 0
4 -86 -140 0
4 -86 97 0
7 -85 -99 0
8 -85 -89 0
1 -85 124 0
9 -85 133 0
7 -84 -130 0
6 -84 106 0
2 -84 109 0
1 -83 -140 0
4 -83 92 0
6 -83 110 0
8 -82 -127 0
9 -82 -114 0
9 -82 -103 0
1 -82 -95 0
7 -82 87 0
5 -82 99 0
5 -82 117 0
5 -82 120 0
3 -82 134 0
7 -81 -83 0
4 -81 90 0
8 -80 -135 0
3 -80 -121 0
3 -80 -117 0
7 -80 -111 0
9 -80 -90 0
4 -79 -122 0
4 -79 -108 0
2 -79 -97 0
6 -79 80 0
7 -79 98 0
8 -79 124 0
4 -79 133 0
8 -79 136 0
7 -78 -130 0
1 -78 -127 0
3 -78 -92 0
8 -78 79 0
2 -78 124 0
7 -78 129 0
4 -77 -102 0
9 -77 -90 0
6 -77 95 0
3 -77 107 0
9 -77 113 0
3 -76 -138 0
6 -76 -137 0
4 -76 -110 0
8 -76 -93 0
9 -76 -88 0
10 -76 -85 0
1 -76 -78 0
6 -76 79 0
3 -76 91 0
3 -76 110 0
4 -76 118 0
2 -76 126 0
6 -75 -87 0
7 -75 87 0
3 -75 122 0
2 -74 -118 0
4 -74 -97 0
1 -74 -84 0
6 -74 138 0
2 -73 -130 0
7 -73 -113 0
6 -73 -87 0
4 -73 82 0
6 -73 84 0
7 -73 87 0
10 -73 115 0
8 -72 -140 0
6 -72 -107 0
6 -72 -91 0
10 -72 105 0
5 -72 136 0
8 -72 139 0
6 -71 -122 0
7 -71 -114 0
6 -71 -80 0
5 -71 86 0
7 -71 113 0
6 -71 117 0
1 -71 127 0
9 -70 -135 0
8 -70 -128 0
4 -70 -117 0
1 -70 74 0
4 -70 88 0
9 -70 94 0
3 -70 114 0
6 -70 117 0
3 -70 130 0
4 -70 140 0
2 -69 -95 0
4 -69 -90 0
1 -69 109 0
7 -69 110 0
7 -69 121 0
6 -69 131 0
4 -69 140 0
7 -68 -125 0
4 -68 -101 0
8 -68 -91 0
3 -68 -78 0
4 -68 119 0
3 -67 -138 0
2 -67 -116 0
9 -67 -113 0
9 -67 -105 0
7 -67 -96 0
4 -67 -95 0
6 -67 -88 0
3 -67 -73 0
4 -67 -68 0
5 -67 78 0
1 -67 103 0
7 -67 118 0
5 -67 120 0
4 -67 121 0
6 -67 122 0
7 -66 -99 0
9 -66 -90 0
9 -66 73 0
10 -66 87 0
1 -66 96 0
3 -66 111 0
10 -66 113 0
7 -65 -120 0
9 -65 -86 0
6 -65 68 0
9 -65 76 0
7 -65 98 0
9 -65 138 0
8 -64 -110 0
9 -64 -92 0
2 -64 -81 0
10 -64 -75 0
10 -64 87 0
1 -64 97 0
9 -63 -86 0
7 -63 97 0
4 -63 131 0
5 -62 -133 0
8 -62 -130 0
8 -62 -125 0
8 -62 -106 0
9 -62 -95 0
5 -62 -91 0
3 -62 -70 0
3 -62 66 0
1 -62 80 0
9 -62 88 0
2 -62 97 0
9 -62 126 0
9 -61 -117 0
2 -61 -100 0
2 -61 -70 0
9 -61 67 0
8 -61 103 0
1 -60 -119 0
4 -60 -112 0
8 -60 -97 0
7 -60 -75 0
3 -60 -67 0
5 -60 67 0
6 -60 136 0
4 -59 -117 0
5 -59 -70 0
6 -59 -63 0
5 -59 63 0
4 -59 83 0
3 -58 -139 0
8 -58 86 0
7 -58 137 0
1 -57 -129 0
6 -57 -124 0
6 -57 -118 0
9 -57 -115 0
9 -57 -106 0
8 -57 -69 0
2 -57 -60 0
10 -57 59 0
7 -57 110 0
3 -57 133 0
9 -56 -76 0
6 -56 -71 0
5 -56 74 0
10 -56 79 0
5 -56 89 0
3 -56 92 0
1 -55 -96 0
8 -55 -84 0
10 -55 80 0
7 -54 58 0
1 -54 60 0
5 -54 94 0
4 -54 115 0
4 -54 124 0
9 -53 -85 0
9 -53 -84 0
8 -53 71 0
3 -53 77 0
2 -53 84 0
6 -53 99 0
9 -52 -96 0
2 -52 53 0
2 -52 60 0
5 -52 74 0
1 -52 82 0
10 -52 92 0
3 -52 138 0
2 -51 -59 0
9 -51 -54 0
9 -51 -53 0
5 -51 62 0
8 -51 83 0
5 -51 120 0
9 -50 -128 0
8 -50 -91 0
9 -50 -70 0
2 -50 -51 0
8 -50 109 0
7 -49 -100 0
2 -49 -90 0
5 -49 -52 0
7 -49 53 0
6 -49 71 0
7 -49 107 0
1 -49 108 0
5 -49 122 0
6 -48 -127 0
8 -48 -123 0
7 -48 -117 0
7 -48 -104 0
4 -48 -94 0
6 -48 -92 0
9 -48 -81 0
4 -48 -69 0
1 -48 50 0
9 -48 51 0
4 -48 66 0
3 -48 87 0
1 -48 124 0
3 -48 135 0
2 -47 -126 0
5 -47 -124 0
1 -47 -116 0
6 -47 -93 0
4 -47 -91 0
8 -47 -88 0
4 -47 -86 0
4 -47 -62 0
5 -47 103 0
1 -46 -94 0
5 -46 -66 0
9 -46 69 0
7 -46 74 0
10 -45 -120 0
7 -45 -87 0
7 -45 -73 0
5 -45 47 0
3 -45 50 0
5 -45 51 0
1 -45 58 0
9 -45 87 0
7 -45 92 0
7 -45 94 0
8 -45 119 0
1 -44 -122 0
7 -44 -55 0
7 -44 68 0
4 -44 105 0
9 -44 112 0
7 -44 123 0
7 -44 135 0
9 -43 -138 0
2 -43 -107 0
7 -43 -68 0
5 -43 -64 0
5 -43 51 0
5 -43 91 0
8 -42 -107 0
8 -42 -103 0
9 -42 -78 0
8 -42 -77 0
3 -42 82 0
8 -42 99 0
5 -42 123 0
3 -41 -132 0
5 -41 -94 0
2 -41 -68 0
7 -41 -56 0
7 -41 -46 0
5 -41 46 0
7 -41 56 0
6 -41 70 0
3 -41 134 0
4 -40 -140 0
3 -40 -132 0
3 -40 -111 0
9 -40 -105 0
9 -40 -91 0
6 -40 -64 0
8 -40 -59 0
6 -40 71 0
3 -40 102 0
7 -40 114 0
7 -40 120 0
9 -40 139 0
2 -39 -105 0
2 -39 -87 0
4 -39 -71 0
9 -39 -53 0
9 -39 52 0
3 -39 87 0
7 -39 89 0
2 -39 103 0
1 -39 129 0
2 -38 -112 0
4 -38 -100 0
5 -38 -90 0
3 -38 -87 0
10 -38 -84 0
2 -38 -79 0
7 -38 -59 0
7 -38 41 0
7 -38 44 0
9 -38 45 0
9 -38 50 0
10 -38 51 0
2 -38 57 0
8 -38 77 0
9 -38 140 0
7 -37 -55 0
6 -37 38 0
4 -37 61 0
9 -37 76 0
3 -37 86 0
1 -37 94 0
8 -37 120 0
4 -36 -118 0
2 -36 -104 0
1 -36 -80 0
3 -36 -72 0
9 -36 62 0
3 -36 63 0
9 -36 67 0
1 -36 134 0
4 -35 -111 0
1 -35 -99 0
4 -35 -89 0
8 -35 42 0
3 -35 70 0
4 -35 85 0
9 -35 100 0
9 -35 104 0
10 -35 111 0
6 -35 123 0
8 -35 133 0
9 -35 139 0
6 -34 -133 0
9 -34 -109 0
7 -34 -71 0
4 -34 -40 0
6 -33 -140 0
3 -33 -115 0
8 -33 -111 0
5 -33 -103 0
6 -33 -94 0
8 -33 -75 0
3 -33 -42 0
9 -33 41 0
8 -33 54 0
3 -33 73 0
2 -33 104 0
8 -33 139 0
6 -32 -133 0
1 -32 -103 0
8 -32 -102 0
8 -32 -88 0
1 -32 -49 0
3 -32 -33 0
6 -32 45 0
3 -32 95 0
6 -32 115 0
5 -32 128 0
2 -32 137 0
5 -31 -133 0
2 -31 -70 0
10 -31 60 0
4 -31 93 0
7 -31 106 0
9 -31 107 0
1 -31 126 0
10 -31 134 0
5 -30 -114 0
4 -30 -83 0
8 -30 -35 0
9 -30 41 0
8 -30 42 0
5 -30 45 0
2 -30 61 0
7 -30 68 0
4 -30 125 0
4 -29 -129 0
8 -29 -94 0
2 -29 -82 0
8 -29 -81 0
8 -29 -61 0
9 -29 -48 0
7 -29 -32 0
8 -29 49 0
2 -29 58 0
3 -29 91 0
2 -28 -138 0
7 -28 -90 0
7 -28 -54 0
3 -28 -30 0
2 -28 31 0
8 -28 34 0
3 -28 37 0
5 -28 40 0
5 -28 62 0
1 -28 69 0
5 -27 -135 0
5 -27 -134 0
5 -27 -127 0
8 -27 -119 0
2 -27 -117 0
4 -27 -76 0
6 -27 -55 0
6 -27 -44 0
5 -27 -43 0
4 -27 47 0
9 -27 59 0
8 -27 62 0
2 -27 112 0
10 -27 113 0
6 -27 140 0
9 -26 -116 0
9 -26 -82 0
3 -26 -52 0
7 -26 -35 0
10 -26 -32 0
5 -26 61 0
8 -26 73 0
6 -26 101 0
2 -26 119 0
10 -25 -135 0
7 -25 -112 0
9 -25 -81 0
2 -25 -64 0
2 -25 -47 0
4 -25 69 0
3 -25 75 0
7 -25 124 0
7 -25 125 0
7 -24 -140 0
5 -24 -124 0
9 -24 -88 0
1 -24 -56 0
1 -24 -47 0
5 -24 -43 0
5 -24 95 0
4 -23 -140 0
4 -23 -70 0
2 -23 -29 0
5 -23 34 0
4 -23 68 0
7 -23 84 0
3 -23 86 0
3 -22 -98 0
9 -22 -92 0
10 -22 -88 0
2 -22 -86 0
4 -22 -24 0
8 -22 -23 0
8 -22 28 0
5 -22 32 0
7 -22 73 0
5 -22 75 0
4 -22 111 0
9 -22 131 0
6 -21 -130 0
7 -21 -123 0
2 -21 -78 0
3 -21 63 0
4 -21 73 0
8 -21 82 0
7 -21 91 0
3 -20 -116 0
8 -20 -64 0
7 -20 -52 0
7 -20 -48 0
3 -20 -26 0
10 -20 -24 0
1 -20 34 0
4 -20 44 0
4 -20 111 0
4 -20 124 0
2 -20 131 0
7 -20 136 0
6 -19 -116 0
10 -19 -108 0
7 -19 -84 0
7 -19 -60 0
4 -19 71 0
4 -19 112 0
5 -19 138 0
7 -18 -115 0
1 -18 -72 0
9 -18 40 0
2 -18 49 0
9 -18 104 0
5 -18 137 0
8 -17 -61 0
10 -17 25 0
7 -17 53 0
2 -17 56 0
7 -17 62 0
4 -17 106 0
4 -17 110 0
5 -16 -106 0
1 -16 -65 0
1 -16 -53 0
7 -16 22 0
1 -16 25 0
1 -16 62 0
10 -16 115 0
5 -15 -110 0
5 -15 -83 0
1 -15 -72 0
1 -15 -52 0
9 -15 -51 0
1 -15 -19 0
7 -15 -18 0
7 -15 40 0
4 -15 61 0
1 -15 66 0
2 -15 85 0
1 -15 96 0
1 -15 120 0
9 -15 133 0
2 -15 140 0
9 -14 -109 0
5 -14 -100 0
8 -14 -80 0
9 -14 -47 0
2 -14 -38 0
9 -14 -19 0
7 -14 -17 0
5 -14 18 0
3 -14 53 0
2 -14 63 0
6 -14 102 0
3 -13 -131 0
8 -13 -102 0
6 -13 -100 0
4 -13 -69 0
7 -13 -49 0
10 -13 -40 0
7 -13 -33 0
8 -13 -22 0
1 -13 -21 0
7 -13 -19 0
8 -13 14 0
7 -13 29 0
4 -13 54 0
2 -13 77 0
7 -13 79 0
4 -13 111 0
2 -13 123 0
7 -12 -138 0
4 -12 -100 0
3 -12 -66 0
7 -12 -22 0
7 -12 23 0
10 -12 27 0
6 -12 49 0
8 -12 111 0
9 -12 128 0
3 -12 133 0
4 -11 -126 0
2 -11 -102 0
4 -11 -93 0
8 -11 -59 0
5 -11 -43 0
1 -11 -29 0
4 -11 22 0
8 -11 59 0
8 -11 65 0
4 -11 117 0
5 -11 120 0
5 -11 122 0
4 -11 136 0
2 -10 -102 0
3 -10 -79 0
10 -10 44 0
5 -10 67 0
4 -10 89 0
7 -10 100 0
8 -10 117 0
5 -9 -97 0
4 -9 -22 0
1 -9 18 0
6 -9 62 0
1 -9 99 0
8 -9 103 0
6 -9 110 0
7 -9 134 0
6 -8 -139 0
5 -8 -128 0
8 -8 -84 0
8 -8 -83 0
7 -8 -46 0
2 -8 -18 0
7 -8 -15 0
2 -8 -13 0
2 -8 33 0
10 -8 37 0
9 -8 71 0
9 -8 78 0
4 -8 82 0
4 -8 105 0
4 -8 113 0
7 -7 -84 0
5 -7 -81 0
6 -7 -64 0
7 -7 -58 0
9 -7 -19 0
9 -7 -10 0
4 -7 9 0
7 -7 67 0
4 -7 127 0
7 -7 139 0
7 -6 -101 0
9 -6 -74 0
8 -6 -23 0
5 -6 7 0
6 -6 26 0
4 -6 68 0
1 -6 91 0
1 -6 124 0
2 -6 126 0
9 -6 127 0
7 -5 -122 0
3 -5 -117 0
5 -5 -90 0
8 -5 -73 0
4 -5 -57 0
5 -5 -38 0
7 -5 7 0
3 -4 -133 0
8 -4 -120 0
10 -4 -102 0
6 -4 -88 0
5 -4 -83 0
5 -4 -35 0
2 -4 7 0
1 -4 26 0
4 -4 29 0
1 -4 52 0
4 -4 93 0
1 -4 124 0
4 -3 -127 0
1 -3 -126 0
8 -3 -62 0
4 -3 -57 0
8 -3 -53 0
3 -3 -50 0
8 -3 -9 0
2 -3 -8 0
3 -3 46 0
9 -3 53 0
3 -3 69 0
1 -3 106 0
6 -3 114 0
6 -3 125 0
5 -2 -133 0
4 -2 -117 0
9 -2 -86 0
10 -2 -62 0
10 -2 -11 0
2 -2 44 0
8 -2 54 0
10 -2 77 0
7 -2 97 0
2 -2 114 0
5 -1 -128 0
8 -1 -111 0
3 -1 -106 0
8 -1 -51 0
8 -1 -19 0
6 -1 8 0
8 -1 11 0
3 -1 40 0
6 -1 123 0
6 1 -103 0
5 1 -102 0
3 1 -84 0
8 1 -82 0
4 1 -22 0
4 1 -18 0
9 1 54 0
2 1 82 0
7 1 101 0
10 1 111 0
7 1 116 0
2 1 121 0
5 2 -139 0
10 2 -138 0
1 2 -107 0
5 2 -51 0
9 2 -22 0
2 2 9 0
2 2 23 0
9 2 60 0
8 2 66 0
4 2 87 0
4 2 90 0
6 2 94 0
5 2 102 0
2 2 113 0
4 2 118 0
1 2 121 0
9 3 -127 0
6 3 -109 0
6 3 -103 0
5 3 -81 0
1 3 -28 0
8 3 5 0
3 3 95 0
4 3 139 0
2 4 -131 0
2 4 -97 0
5 4 -86 0
8 4 -66 0
2 4 -54 0
2 4 -39 0
9 4 17 0
6 4 25 0
2 4 57 0
9 4 73 0
10 4 81 0
2 4 115 0
10 4 121 0
2 4 129 0
10 5 -117 0
8 5 -95 0
5 5 -84 0
4 5 -59 0
3 5 -51 0
10 5 -38 0
5 5 -33 0
6 5 22 0
10 5 48 0
4 5 66 0
2 5 134 0
5 6 -128 0
9 6 -114 0
2 6 -93 0
4 6 -81 0
2 6 -22 0
5 6 -16 0
5 6 44 0
3 6 57 0
10 6 66 0
3 6 80 0
4 6 83 0
2 7 -99 0
2 7 -50 0
9 7 -47 0
4 7 -45 0
10 7 -18 0
9 7 -10 0
4 7 28 0
9 7 87 0
2 7 95 0
4 7 100 0
7 7 112 0
6 7 125 0
7 8 -125 0
9 8 -121 0
6 8 -113 0
2 8 -97 0
5 8 -96 0
5 8 -82 0
6 8 -65 0
6 8 -57 0
10 8 -48 0
4 8 -21 0
8 8 33 0
3 8 92 0
5 8 134 0
3 8 139 0
7 9 -129 0
7 9 -109 0
3 9 -67 0
9 9 -65 0
2 9 -46 0
4 9 -45 0
10 9 -27 0
1 9 12 0
7 9 14 0
9 9 68 0
9 9 87 0
1 9 99 0
9 9 105 0
1 10 -112 0
5 10 -57 0
6 10 -45 0
6 10 72 0
2 10 82 0
5 10 100 0
2 10 108 0
3 11 -139 0
9 11 -101 0
6 11 -93 0
8 11 -65 0
6 11 -38 0
6 11 15 0
2 11 22 0
3 11 26 0
8 11 90 0
6 11 140 0
5 12 -140 0
5 12 -109 0
3 12 -108 0
7 12 -86 0
4 12 -81 0
4 12 -71 0
1 12 -46 0
3 12 23 0
4 12 34 0
7 12 70 0
3 12 85 0
3 12 88 0
7 13 -137 0
1 13 -116 0
3 13 -86 0
2 13 -65 0
6 13 -62 0
9 13 -40 0
3 13 -22 0
10 13 49 0
9 13 59 0
5 13 62 0
9 13 107 0
5 13 124 0
2 13 135 0
4 14 -140 0
1 14 -125 0
3 14 -120 0
7 14 -117 0
8 14 39 0
8 14 60 0
2 14 77 0
3 14 90 0
1 14 108 0
8 14 114 0
6 14 123 0
4 14 136 0
9 15 -123 0
9 15 -100 0
7 15 -59 0
6 15 -16 0
1 15 20 0
9 15 53 0
3 15 54 0
1 15 64 0
3 15 67 0
4 15 87 0
6 16 -96 0
2 16 -93 0
6 16 -74 0
6 16 52 0
10 16 69 0
9 17 -130 0
5 17 -122 0
5 17 -118 0
2 17 -101 0
8 17 -97 0
6 17 -95 0
4 17 -29 0
5 17 -25 0
4 17 61 0
2 17 81 0
6 17 110 0
6 18 -139 0
2 18 -123 0
4 18 -121 0
2 18 -120 0
5 18 -112 0
3 18 -74 0
10 18 -66 0
2 18 -38 0
8 18 45 0
1 18 79 0
2 18 85 0
1 18 88 0
2 18 105 0
4 18 121 0
4 19 -58 0
7 19 -45 0
4 19 -39 0
9 19 -35 0
3 19 -30 0
4 19 -23 0
9 19 59 0
6 19 65 0
8 19 77 0
9 19 102 0
4 20 -58 0
4 20 63 0
3 20 90 0
8 21 -72 0
7 21 -39 0
3 21 44 0
3 21 63 0
3 21 65 0
4 21 110 0
6 22 -116 0
4 22 -114 0
8 22 -37 0
8 22 30 0
4 22 32 0
9 22 42 0
6 22 48 0
4 22 79 0
1 22 129 0
6 23 -110 0
5 23 -83 0
4 23 -56 0
10 23 35 0
2 23 82 0
7 23 95 0
9 23 105 0
4 23 108 0
10 23 123 0
7 24 -139 0
9 24 -129 0
8 24 -114 0
6 24 -111 0
3 24 -106 0
2 24 -86 0
8 24 -82 0
1 24 -62 0
8 24 -58 0
1 24 -46 0
4 24 -39 0
1 24 42 0
4 24 63 0
9 24 72 0
4 24 85 0
3 24 103 0
7 24 115 0
7 25 -131 0
2 25 -61 0
3 25 -31 0
2 25 -29 0
2 25 28 0
9 25 32 0
6 25 55 0
5 25 90 0
9 25 108 0
7 25 114 0
1 25 139 0
7 26 -119 0
10 26 -94 0
1 26 29 0
5 26 48 0
9 26 69 0
9 26 71 0
1 26 81 0
2 26 95 0
1 26 115 0
8 26 118 0
3 26 133 0
8 27 -117 0
9 27 -84 0
5 27 -71 0
8 27 -66 0
3 27 -44 0
4 27 52 0
3 27 58 0
4 27 87 0
2 27 104 0
9 27 111 0
5 27 129 0
4 28 -132 0
10 28 -108 0
6 28 -104 0
3 28 -103 0
5 28 -79 0
10 28 -75 0
1 28 -54 0
2 28 -38 0
1 28 32 0
8 28 48 0
1 28 101 0
2 28 104 0
2 28 113 0
9 29 -136 0
9 29 -113 0
3 29 -87 0
2 29 -75 0
9 29 -67 0
10 29 -44 0
3 29 32 0
8 29 33 0
8 29 63 0
7 29 70 0
6 29 84 0
1 29 140 0
1 30 -116 0
8 30 -109 0
5 30 -56 0
2 30 -36 0
6 30 52 0
9 30 87 0
5 30 122 0
6 30 140 0
5 31 -57 0
7 31 85 0
1 31 102 0
5 32 -128 0
7 32 -124 0
2 32 -110 0
6 32 -62 0
5 32 -47 0
3 32 -41 0
6 32 -38 0
6 32 73 0
2 32 97 0
6 32 103 0
8 32 116 0
2 33 -133 0
5 33 -131 0
8 33 -68 0
4 33 -49 0
3 33 -38 0
6 33 62 0
2 33 69 0
8 33 76 0
6 33 78 0
2 33 90 0
5 33 110 0
1 33 114 0
3 34 -129 0
2 34 -49 0
9 34 -39 0
7 34 54 0
7 34 58 0
5 34 61 0
4 34 74 0
7 34 101 0
9 34 107 0
10 34 140 0
8 35 -111 0
5 35 -85 0
4 35 -53 0
10 35 39 0
10 35 56 0
10 35 117 0
1 35 121 0
6 36 -105 0
7 36 -99 0
3 36 -49 0
10 36 -37 0
5 36 41 0
6 36 80 0
3 36 124 0
10 37 -106 0
7 37 140 0
10 38 -122 0
6 38 -59 0
8 38 64 0
5 38 76 0
6 38 82 0
10 38 110 0
6 38 134 0
5 38 135 0
7 39 -78 0
3 39 -69 0
9 39 -54 0
9 39 41 0
9 39 66 0
8 39 103 0
9 39 129 0
7 39 133 0
2 39 136 0
3 40 -124 0
6 40 -106 0
2 40 -91 0
3 40 -90 0
7 40 -43 0
7 40 58 0
9 40 76 0
8 40 80 0
7 40 92 0
4 40 113 0
4 40 116 0
8 40 138 0
4 41 -137 0
10 41 -58 0
8 41 94 0
9 41 116 0
8 42 -122 0
3 42 -121 0
5 42 -80 0
7 42 -60 0
8 42 68 0
9 42 119 0
4 42 126 0
10 43 -107 0
8 43 -98 0
3 43 -93 0
8 43 78 0
6 43 117 0
2 44 -122 0
5 44 -101 0
7 44 -80 0
4 44 -64 0
1 44 48 0
8 44 84 0
6 44 106 0
7 45 -124 0
5 45 -118 0
5 45 -110 0
5 45 -88 0
1 45 51 0
8 45 123 0
9 46 -140 0
9 46 -126 0
2 46 -86 0
9 46 -54 0
6 46 70 0
10 46 130 0
6 46 136 0
8 47 53 0
5 47 84 0
4 47 101 0
6 47 114 0
4 48 -130 0
7 48 -124 0
5 48 -104 0
2 48 -93 0
9 48 -84 0
4 48 -63 0
6 48 49 0
10 48 60 0
8 48 131 0
3 49 -136 0
4 49 57 0
8 49 77 0
10 49 89 0
9 50 -109 0
5 51 -137 0
5 51 -100 0
4 51 66 0
10 51 118 0
5 51 137 0
3 52 -92 0
8 52 -87 0
3 52 78 0
4 52 93 0
7 53 -77 0
9 53 -74 0
4 53 74 0
3 53 101 0
7 53 110 0
7 53 111 0
6 53 112 0
3 54 -137 0
1 54 -90 0
2 54 -79 0
7 54 -75 0
2 54 86 0
10 54 91 0
10 54 132 0
7 55 -137 0
10 55 -113 0
8 55 -65 0
9 55 84 0
4 55 93 0
6 56 -127 0
9 56 -102 0
3 56 72 0
1 56 104 0
3 57 -132 0
6 57 -96 0
1 57 90 0
7 57 97 0
8 57 99 0
8 58 -84 0
9 58 -81 0
2 58 -80 0
5 58 82 0
8 59 -129 0
4 59 -105 0
7 59 -65 0
5 59 93 0
2 59 97 0
3 59 100 0
7 59 113 0
2 60 -140 0
4 60 -129 0
4 60 -105 0
2 60 -89 0
4 60 64 0
4 60 94 0
8 60 96 0
4 60 97 0
2 61 -84 0
7 61 76 0
6 61 77 0
7 61 120 0
5 61 137 0
8 61 139 0
7 62 -136 0
7 62 -125 0
4 62 -101 0
7 62 68 0
4 62 139 0
2 63 -76 0
6 63 -73 0
4 63 64 0
3 63 87 0
10 63 117 0
2 63 133 0
6 64 -115 0
7 64 -97 0
6 64 -96 0
7 64 -88 0
9 64 -80 0
3 64 -72 0
7 64 -67 0
4 65 -140 0
6 65 -118 0
9 65 -106 0
7 65 -72 0
9 65 110 0
7 65 126 0
10 66 -123 0
10 66 -112 0
3 66 -99 0
6 66 -84 0
7 66 -78 0
8 66 -70 0
5 66 132 0
4 66 139 0
5 66 140 0
8 67 -138 0
1 67 -106 0
8 67 -85 0
9 67 69 0
6 67 111 0
2 67 113 0
2 68 71 0
6 68 73 0
3 68 80 0
7 68 99 0
3 68 112 0
8 68 115 0
4 68 140 0
3 69 -71 0
10 69 75 0
1 69 76 0
5 69 109 0
5 69 129 0
9 69 132 0
3 70 -72 0
5 70 -71 0
6 70 71 0
2 70 84 0
4 70 94 0
8 70 126 0
8 71 -131 0
1 71 -104 0
6 71 -87 0
2 71 77 0
4 71 78 0
9 71 79 0
9 71 85 0
5 71 93 0
7 71 98 0
8 71 104 0
9 72 -113 0
8 72 83 0
9 72 91 0
5 72 107 0
1 73 -121 0
6 73 -92 0
7 73 88 0
8 73 106 0
9 73 130 0
9 74 -138 0
7 74 -133 0
9 74 -120 0
4 74 -111 0
3 74 -94 0
8 74 -90 0
6 74 129 0
6 75 -95 0
4 75 -84 0
7 75 122 0
10 76 101 0
2 76 132 0
5 77 -114 0
1 77 91 0
7 77 93 0
6 77 106 0
4 77 120 0
6 77 137 0
6 77 139 0
8 78 -130 0
4 78 -88 0
4 78 128 0
7 79 -131 0
2 79 -127 0
3 79 -119 0
2 79 -111 0
2 79 -102 0
8 79 -88 0
8 79 -81 0
9 79 110 0
7 79 114 0
7 80 -138 0
6 80 -125 0
7 80 127 0
1 81 -109 0
8 81 -95 0
5 81 -93 0
6 81 -87 0
4 81 -86 0
9 81 88 0
3 82 -123 0
4 82 -104 0
10 82 107 0
7 82 115 0
4 82 127 0
7 83 -124 0
3 83 113 0
7 84 -129 0
3 84 -104 0
7 84 -99 0
5 84 -95 0
5 84 105 0
1 84 135 0
2 85 -132 0
6 85 118 0
3 85 123 0
3 85 125 0
7 86 -100 0
2 86 88 0
2 86 89 0
6 86 93 0
8 86 107 0
8 86 134 0
2 87 -126 0
5 87 -122 0
8 87 -116 0
8 87 -105 0
9 87 -103 0
4 87 96 0
2 87 129 0
8 88 -118 0
6 88 110 0
5 88 112 0
8 88 124 0
2 89 -112 0
8 89 114 0
4 89 125 0
4 89 132 0
5 90 114 0
6 90 128 0
2 91 -129 0
9 91 103 0
1 92 -124 0
2 92 -122 0
10 92 103 0
7 92 114 0
4 94 -129 0
3 94 -103 0
4 94 -99 0
5 94 116 0
4 95 -139 0
9 95 -134 0
3 95 -103 0
2 95 112 0
9 96 135 0
7 97 -118 0
10 97 104 0
8 97 121 0
6 98 105 0
4 99 -124 0
9 99 -121 0
4 99 121 0
8 99 140 0
4 100 -115 0
2 100 115 0
10 100 117 0
2 101 -121 0
5 103 134 0
4 103 139 0
6 104 -134 0
2 104 -130 0
5 104 -124 0
5 104 -106 0
2 104 133 0
6 105 -119 0
4 106 -140 0
8 106 -135 0
10 106 120 0
7 106 122 0
1 107 -129 0
5 107 -127 0
10 107 -111 0
9 107 108 0
7 107 125 0
2 107 132 0
8 108 -140 0
4 108 -139 0
2 108 -131 0
6 108 121 0
9 108 122 0
4 109 -127 0
5 109 136 0
3 110 -132 0
3 111 -138 0
8 111 139 0
5 112 128 0
2 113 -135 0
9 113 -125 0
9 113 -124 0
6 113 117 0
5 113 120 0
10 113 134 0
10 114 -132 0
8 114 -116 0
2 114 -115 0
6 114 127 0
3 115 118 0
8 115 123 0
6 115 131 0
9 116 -131 0
9 116 -123 0
10 116 137 0
8 117 130 0
8 118 -128 0
7 118 -121 0
10 118 124 0
6 118 139 0
10 119 -140 0
1 119 -139 0
2 119 127 0
9 119 138 0
5 120 -123 0
6 120 127 0
2 122 -136 0
6 123 -139 0
5 124 -133 0
6 126 -134 0
8 127 -140 0
4 127 -131 0
5 127 -130 0
3 127 -128 0
8 128 -130 0
4 131 -140 0
3 131 -138 0
6 132 -136 0
5 134 -137 0
